6001 5709 5482 5242 5032 4874 4608 4431 4328 4141 4057 3927 3774 3613 3529 3416 3235 3223 3109 2981 2920 2869 2782 2723 2644 2588 2547 2476 2437 2407 2348 2301 2251 2225 2188 2168 2152 2137 2117 2066 2063 2057 2045 2012 2012 2004 2004 1978 1970 1967 1972 1964 1959 1951 1950 1934 1929 1915 1901 1899 1889 1891 1912 1905 1891 1875 1866 1847 1846 1824 1812 1804 1793 1786 1767 1761 1757 1751 1741 1723 1722 1714 1708 1706 1700 1694 1681 1674 1662 1662 1654 1635 1635 1635 1622 1617 1615 1614 1602 1601 1599 1599 1596 1588 1581 1575 1575 1568 1561 1548 1548 1542 1542 1536 1524 1520 1518 1512 1512 1512 1496 1496 1496 1490 1482 1482 1482 1481 1481 1477 1476 1470 1470 1465 1462 1459 1459 1458 1458 1452 1452 1447 1447 1447 1445 1445 1444 1444 1444 1444 1444 1438 1438 1438 1434 1434 1434 1434 1434 1434 1434 1434 1434 1434 1434 1434 1434 1434 1434 1434 1434 1434 1434 1434 1434 1434 1434 1434 1434 1430 1430 1430 1430 1430 1430 1430 1430 1430 1430 1430 1430 1430 1430 1430 1430 1430 1430 1430 1430 1430 1430 1430 1430 1430 1430 1430 1430 1430 1430 1430 1430 1430 1430 1430 1430 1430 1430 1430 1430 1430 1430 1430 1430 1430 1430 1430 1430 1430 1430 1430 1430 1430 1430 1430 1430 1430 1430 1430 1430 1430 1430 1430 1430 1430 1430 1430 1430 1430 1430 1430 1430 1430 1430 1430 1430 1430 1430 1430 1430 1430 1430 1430 1430 1430 1430 1430 1430 1430 1430 1430 1430 1430 1430 1430 1430 1430 1430 1430 1430 1430 1430 1430 1430 1430 1430 1430 1430 1430 1430 1430 1430 1430 1430 1430 1430 1430 1430 1430 1430 1430 1430 1430 1430 1430 1430 1430 1430 1430 1430 1430 1430 1430 1430 1430 1430 1430 1430 1430 1430 1430 1430 1430 1430 1430 1430 1430 1430 1430 1430 1430 1430 1430 1430 1430 1430 1430 1430 1430 1430 1430 1430 1430 1430 1430 1430 1430 1430 1430 1430 1430 1430 1430 1430 1430 1430 1430 1430 1430 1430 1430 1430 1430 1430 1430 1430 1430 1430 1430 1430 1430 1430 1430 1430 1430 1430 1430 1430 1430 1430 1430 1430 1430 1430 1430 1430 1430 1430 1430 1430 1430 1430 1430 1430 1430 1430 1430 1430 1430 1430 1430 1430 1430 1430 1430 1430 1430 1430 1430 1430 1430 1430 1430 1430 1430 1430 1430 1430 1430 1430 1430 1430 1430 1430 1430 1430 1430 1430 1430 1430 1430 1430 1430 1430 1430 1430 1430 1430 1430 1430 1430 1430 1430 1430 1430 1430 1430 1430 1430 1430 1430 1430 1430 1430 1430 1430 1430 1430 1430 1430 1430 1430 1430 1430 1430 1430 1430 1430 1430 1430 1430 1430 1430 1430 1430 1430 1430 1430 1430 1430 1430 1430 1430 1430 1430 1430 1430 1430 1430 1430 1430 1430 1430 1430 1430 1430 1430 1430 1430 1430 1430 1430 1430 1430 1430 1430 1430 1430 1430 1430 1430 1430 1430 1430 1430 1430 1430 1430 1430 1430 1430 1430 1430 1430 1430 1430 1430 1430 1430 1430 1430 1430 1430 1430 1430 1430 1430 1430 1430 1430 1430 1430 1430 1430 1430 1430 1430 1430 1430 1430 1430 1430 1430 1430 1430 1430 1430 1430 1430 1430 1430 1430 1430 1430 1430 1430 1430 1430 1430 1430 1430 1430 1430 1430 1430 1430 1430 1430 1430 1430 1430 1430 1430 1430 1430 1430 1430 1430 1430 1430 1430 1430 1430 1430 1430 1430 1430 1430 1430 1430 1430 1430 1430 1430 1430 1430 1430 1430 1430 1430 1430 1430 1430 1430 1430 1430 1430 1430 1430 1430 1430 1430 1430 1430 1430 1430 1430 1430 1430 1430 1430 1430 1430 1430 1430 1430 1430 1430 1430 1430 1430 1430 1430 1430 1430 1430 1430 1430 1430 1430 1430 1430 1430 1430 1430 1430 1430 1430 1430 1430 1430 1430 1430 1430 1430 1430 1430 1430 1430 1430 1430 1430 1430 1430 1430 1430 1430 1430 1430 1430 1430 
4001 3714 3482 3247 3037 2874 2613 2457 2333 2143 2104 1927 1774 1643 1545 1446 1273 1232 1111 997 936 871 783 733 654 598 557 530 475 455 415 371 326 292 259 236 216 214 189 161 158 145 134 109 95 91 91 81 77 76 73 72 72 58 56 54 54 42 11 11 9 4 4 4 0 0 0 0 0 0 0 0 0 0 0 0 0 0 0 0 0 0 0 0 0 0 0 0 0 0 0 0 0 0 0 0 0 0 0 0 0 0 0 0 0 0 0 0 0 0 0 0 0 0 0 0 0 0 0 0 0 0 0 0 0 0 0 0 0 0 0 0 0 0 0 0 0 0 0 0 0 0 0 0 0 0 0 0 0 0 0 0 0 0 0 0 0 0 0 0 0 0 0 0 0 0 0 0 0 0 0 0 0 0 0 0 0 0 0 0 0 0 0 0 0 0 0 0 0 0 0 0 0 0 0 0 0 0 0 0 0 0 0 0 0 0 0 0 0 0 0 0 0 0 0 0 0 0 0 0 0 0 0 0 0 0 0 0 0 0 0 0 0 0 0 0 0 0 0 0 0 0 0 0 0 0 0 0 0 0 0 0 0 0 0 0 0 0 0 0 0 0 0 0 0 0 0 0 0 0 0 0 0 0 0 0 0 0 0 0 0 0 0 0 0 0 0 0 0 0 0 0 0 0 0 0 0 0 0 0 0 0 0 0 0 0 0 0 0 0 0 0 0 0 0 0 0 0 0 0 0 0 0 0 0 0 0 0 0 0 0 0 0 0 0 0 0 0 0 0 0 0 0 0 0 0 0 0 0 0 0 0 0 0 0 0 0 0 0 0 0 0 0 0 0 0 0 0 0 0 0 0 0 0 0 0 0 0 0 0 0 0 0 0 0 0 0 0 0 0 0 0 0 0 0 0 0 0 0 0 0 0 0 0 0 0 0 0 0 0 0 0 0 0 0 0 0 0 0 0 0 0 0 0 0 0 0 0 0 0 0 0 0 0 0 0 0 0 0 0 0 0 0 0 0 0 0 0 0 0 0 0 0 0 0 0 0 0 0 0 0 0 0 0 0 0 0 0 0 0 0 0 0 0 0 0 0 0 0 0 0 0 0 0 0 0 0 0 0 0 0 0 0 0 0 0 0 0 0 0 0 0 0 0 0 0 0 0 0 0 0 0 0 0 0 0 0 0 0 0 0 0 0 0 0 0 0 0 0 0 0 0 0 0 0 0 0 0 0 0 0 0 0 0 0 0 0 0 0 0 0 0 0 0 0 0 0 0 0 0 0 0 0 0 0 0 0 0 0 0 0 0 0 0 0 0 0 0 0 0 0 0 0 0 0 0 0 0 0 0 0 0 0 0 0 0 0 0 0 0 0 0 0 0 0 0 0 0 0 0 0 0 0 0 0 0 0 0 0 0 0 0 0 0 0 0 0 0 0 0 0 0 0 0 0 0 0 0 0 0 0 0 0 0 0 0 0 0 0 0 0 0 0 0 0 0 0 0 0 0 0 0 0 0 0 0 0 0 0 0 0 0 0 0 0 0 0 0 0 0 